data/solutions/planning/wellformed/hard/highest_rank_objective/wellformed_hard_instance6_cplex.sol
Elapsed time: 17.64
Nodes explored: 20088
Nodes left: -
Relative gap: -
Upper bound: 181593205.0
Lower bound: -
C[0]=177512.0
C[1]=177512.0
C[2]=177511.0
C[3]=177507.0
C[4]=177496.0
C[5]=177495.0
C[6]=177495.0
C[7]=177491.0
C[8]=177477.0
C[9]=177463.0
y[0]=0
y[1]=9
y[2]=8
y[3]=3
y[4]=2
y[5]=5
y[6]=9
y[7]=5
y[8]=0
y[9]=2
y[10]=3
y[11]=9
y[12]=6
y[13]=4
y[14]=3
y[15]=5
y[16]=1
y[17]=4
y[18]=1
y[19]=4
y[20]=6
y[21]=9
y[22]=5
y[23]=0
y[24]=2
y[25]=3
y[26]=0
y[27]=1
y[28]=7
y[29]=3
y[30]=2
y[31]=1
y[32]=5
y[33]=6
y[34]=2
y[35]=7
y[36]=1
y[37]=0
y[38]=6
y[39]=5
y[40]=1
y[41]=4
y[42]=0
y[43]=8
y[44]=2
y[45]=4
y[46]=3
y[47]=3
y[48]=9
y[49]=7
y[50]=9
y[51]=4
y[52]=3
y[53]=8
y[54]=9
y[55]=1
y[56]=1
y[57]=3
y[58]=9
y[59]=6
y[60]=8
y[61]=3
y[62]=9
y[63]=5
y[64]=1
y[65]=3
y[66]=0
y[67]=1
y[68]=1
y[69]=7
y[70]=7
y[71]=1
y[72]=8
y[73]=0
y[74]=3
y[75]=5
y[76]=1
y[77]=5
y[78]=8
y[79]=7
y[80]=1
y[81]=5
y[82]=6
y[83]=3
y[84]=6
y[85]=9
y[86]=2
y[87]=1
y[88]=1
y[89]=1
y[90]=5
y[91]=9
y[92]=5
y[93]=8
y[94]=9
y[95]=8
y[96]=7
y[97]=0
y[98]=9
y[99]=2
y[100]=8
y[101]=3
y[102]=2
y[103]=0
y[104]=0
y[105]=1
y[106]=9
y[107]=1
y[108]=3
y[109]=4
y[110]=7
y[111]=0
y[112]=3
y[113]=8
y[114]=9
y[115]=7
y[116]=9
y[117]=0
y[118]=2
y[119]=6
y[120]=9
y[121]=3
y[122]=2
y[123]=2
y[124]=2
y[125]=2
y[126]=4
y[127]=8
y[128]=9
y[129]=5
y[130]=2
y[131]=5
y[132]=1
y[133]=5
y[134]=2
y[135]=0
y[136]=0
y[137]=0
y[138]=2
y[139]=6
y[140]=7
y[141]=2
y[142]=5
y[143]=2
y[144]=9
y[145]=4
y[146]=4
y[147]=7
y[148]=1
y[149]=2
y[150]=1
y[151]=4
y[152]=2
y[153]=0
y[154]=7
y[155]=2
y[156]=7
y[157]=8
y[158]=2
y[159]=9
y[160]=7
y[161]=0
y[162]=1
y[163]=8
y[164]=0
y[165]=6
y[166]=4
y[167]=3
y[168]=1
y[169]=8
y[170]=4
y[171]=5
y[172]=1
y[173]=2
y[174]=2
y[175]=8
y[176]=9
y[177]=1
y[178]=1
y[179]=7
y[180]=9
y[181]=9
y[182]=9
y[183]=2
y[184]=1
y[185]=2
y[186]=1
y[187]=2
y[188]=0
y[189]=6
y[190]=2
y[191]=8
y[192]=3
y[193]=1
y[194]=0
y[195]=0
y[196]=6
y[197]=2
y[198]=7
y[199]=8
