data/solutions/planning/wellformed/hard/highest_rank_objective/wellformed_hard_instance6_cplex.log
Found incumbent of value 1774959.000000 after 0.00 sec. (0.17 ticks)
Tried aggregator 2 times.
Aggregator did 10 substitutions.
Reduced MIP has 210 rows, 2001 columns, and 4010 nonzeros.
Reduced MIP has 2000 binaries, 0 generals, 0 SOSs, and 0 indicators.
Presolve time = 0.00 sec. (3.43 ticks)
Probing time = 0.00 sec. (1.75 ticks)
Tried aggregator 1 time.
Reduced MIP has 210 rows, 2001 columns, and 4010 nonzeros.
Reduced MIP has 2000 binaries, 1 generals, 0 SOSs, and 0 indicators.
Presolve time = 0.00 sec. (2.30 ticks)
Probing time = 0.00 sec. (1.74 ticks)
Clique table members: 200.
MIP emphasis: balance optimality and feasibility.
MIP search method: dynamic search.
Parallel mode: none, using 1 thread.
Root relaxation solution time = 0.01 sec. (9.62 ticks)

        Nodes                                         Cuts/
   Node  Left     Objective  IInf  Best Integer    Best Bound    ItCnt     Gap

*     0+    0                      1774959.0000        0.0000           100.00%
      0     0   177495.9000    18  1774959.0000   177495.9000      264   90.00%
*     0+    0                       189756.0000   177495.9000             6.46%
      0     0   177496.0000    18   189756.0000      Fract: 6      280    6.46%
*     0+    0                       186240.0000   177496.0000             4.70%
      0     0   177496.0000    22   186240.0000      Cuts: 20      311    4.70%
*     0+    0                       182053.0000   177496.0000             2.50%
*     0+    0                       181139.0000   177496.0000             2.01%
*     0+    0                       180915.0000   177496.0000             1.89%
      0     2   177496.0000    14   180915.0000   177496.0000      311    1.89%
Elapsed time = 0.08 sec. (99.06 ticks, tree = 0.01 MB, solutions = 6)
*   110+  108                       180152.0000   177496.0000             1.47%
*   120+  118                       179168.0000   177496.0000             0.93%
*   130+  128                       178248.0000   177496.0000             0.42%
*   300+  296                       178097.0000   177496.0000             0.34%
*   360+  356                       177978.0000   177496.0000             0.27%
    410   406   177496.0000    18   177978.0000   177496.0000     1717    0.27%
    411   407   177496.0000    18   177978.0000   177496.0000     1718    0.27%
    412   408   177496.0000    18   177978.0000   177496.0000     1722    0.27%
    413   409   177496.0000    18   177978.0000   177496.0000     1723    0.27%
    414   410   177496.0000    18   177978.0000   177496.0000     1725    0.27%
    415   411   177496.0000    18   177978.0000   177496.0000     1726    0.27%
    416   412   177496.0000    18   177978.0000   177496.0000     1727    0.27%
    417   413   177496.0000    18   177978.0000   177496.0000     1728    0.27%
    418   414   177496.0000    18   177978.0000   177496.0000     1729    0.27%
*   440+  432                       177915.0000   177496.0000             0.24%
*   450+  442                       177898.0000   177496.0000             0.23%
*   480+  472                       177896.0000   177496.0000             0.22%
*   490+  482                       177887.0000   177496.0000             0.22%
*   520+  511                       177848.0000   177496.0000             0.20%
*   540+  531                       177819.0000   177496.0000             0.18%
*   560+  549                       177812.0000   177496.0000             0.18%
*   570+  559                       177809.0000   177496.0000             0.18%
*   580+  567                       177798.0000   177496.0000             0.17%
*   690+  674                       177793.0000   177496.0000             0.17%
*   693+  452                       177728.0000   177496.0000             0.13%
*   693+  301                       177671.0000   177496.0000             0.10%
    823   372   177496.0000    15   177671.0000   177496.0000     3483    0.10%
Elapsed time = 0.87 sec. (1053.97 ticks, tree = 0.47 MB, solutions = 23)
*   973+  402                       177667.0000   177496.0000             0.10%
*   993+  371                       177598.0000   177496.0000             0.06%
*  1418   673      integral     0   177566.0000   177496.0000     5965    0.04%
*  1423+  660                       177553.0000   177496.0000             0.03%
   1457   694   177496.0000    16   177553.0000   177496.0000     6096    0.03%
   1458   695   177496.0000    16   177553.0000   177496.0000     6100    0.03%
   1459   696   177496.0000    16   177553.0000   177496.0000     6102    0.03%
   1460   697   177496.0000    16   177553.0000   177496.0000     6104    0.03%
   1461   698   177496.0000    17   177553.0000   177496.0000     6108    0.03%
   1462   699   177496.0000    17   177553.0000   177496.0000     6112    0.03%
   1463   700   177496.0000    17   177553.0000   177496.0000     6113    0.03%
   1464   701   177496.0000    17   177553.0000   177496.0000     6119    0.03%
   1465   702   177496.0000    17   177553.0000   177496.0000     6122    0.03%
   1466   703   177496.0000    17   177553.0000   177496.0000     6124    0.03%
Elapsed time = 1.61 sec. (2022.23 ticks, tree = 1.11 MB, solutions = 27)
*  1593+  828                       177552.0000   177496.0000             0.03%
*  1693+  922                       177549.0000   177496.0000             0.03%
*  1793+ 1017                       177543.0000   177496.0000             0.03%
*  1853+ 1056                       177531.0000   177496.0000             0.02%
*  1893+ 1086                       177530.0000   177496.0000             0.02%
*  1993+ 1150                       177526.0000   177496.0000             0.02%
   2393  1505   177510.0000    14   177526.0000   177496.0000     9323    0.02%
   2394  1506   177510.0000    14   177526.0000   177496.0000     9326    0.02%
   2395  1507   177510.0000    14   177526.0000   177496.0000     9329    0.02%
   2396  1508   177510.0000    14   177526.0000   177496.0000     9335    0.02%
   2397  1509   177510.0000    14   177526.0000   177496.0000     9343    0.02%
   2398  1510   177510.0000    13   177526.0000   177496.0000     9346    0.02%
   2399  1511   177510.0000    13   177526.0000   177496.0000     9350    0.02%
   2400  1512   177510.0000    13   177526.0000   177496.0000     9351    0.02%
   2401  1513   177510.0000    15   177526.0000   177496.0000     9356    0.02%
   2402  1514   177510.0000    13   177526.0000   177496.0000     9357    0.02%
Elapsed time = 2.47 sec. (2985.32 ticks, tree = 2.56 MB, solutions = 33)
   4270  3236   177516.0000    11   177526.0000   177496.0000    15995    0.02%
   4271  3235        cutoff         177526.0000   177496.0000    15999    0.02%
   4272  3235   177516.0000    12   177526.0000   177496.0000    16001    0.02%
   4273  3235   177516.0000    12   177526.0000   177496.0000    16007    0.02%
   4274  3236   177516.0000    12   177526.0000   177496.0000    16010    0.02%
   4275  3237   177516.0000    12   177526.0000   177496.0000    16016    0.02%
   4276  3238   177516.0000    12   177526.0000   177496.0000    16020    0.02%
   4277  3239   177516.0000    12   177526.0000   177496.0000    16022    0.02%
   4278  3240   177516.0000    12   177526.0000   177496.0000    16023    0.02%
   4279  3241   177516.0000    12   177526.0000   177496.0000    16025    0.02%
Elapsed time = 3.13 sec. (3942.38 ticks, tree = 5.53 MB, solutions = 33)
   6787  5540   177496.0000    13   177526.0000   177496.0000    24360    0.02%
   6788  5541   177496.0000    14   177526.0000   177496.0000    24361    0.02%
   6789  5542   177496.0000    13   177526.0000   177496.0000    24368    0.02%
   6790  5543   177496.0000    14   177526.0000   177496.0000    24369    0.02%
   6791  5544   177496.0000    14   177526.0000   177496.0000    24370    0.02%
   6792  5545   177496.0000    13   177526.0000   177496.0000    24375    0.02%
   6793  5546   177496.0000    14   177526.0000   177496.0000    24378    0.02%
   6794  5547   177496.0000    13   177526.0000   177496.0000    24380    0.02%
   6795  5548   177496.0000    14   177526.0000   177496.0000    24382    0.02%
   6796  5549   177496.0000    13   177526.0000   177496.0000    24385    0.02%
Elapsed time = 3.78 sec. (4899.42 ticks, tree = 9.53 MB, solutions = 33)
*  8064  6200      integral     0   177521.0000   177496.0000    27662    0.01%
   9911  7838   177502.0000    10   177521.0000   177496.0000    31824    0.01%
   9912  7839   177502.0000    10   177521.0000   177496.0000    31825    0.01%
   9913  7840   177502.0000     9   177521.0000   177496.0000    31828    0.01%
   9914  7841   177502.0000     8   177521.0000   177496.0000    31829    0.01%
   9915  7842   177502.0000     9   177521.0000   177496.0000    31830    0.01%
   9916  7843   177502.0000     8   177521.0000   177496.0000    31831    0.01%
   9917  7844   177502.0000     9   177521.0000   177496.0000    31833    0.01%
   9918  7845   177502.0000     9   177521.0000   177496.0000    31836    0.01%
   9919  7846   177502.0000     9   177521.0000   177496.0000    31838    0.01%
   9920  7847   177502.0000    10   177521.0000   177496.0000    31840    0.01%
Elapsed time = 4.45 sec. (5855.80 ticks, tree = 13.45 MB, solutions = 34)
  11427  9199   177499.0000    12   177521.0000   177496.0000    35065    0.01%
  11428  9200   177499.0000    12   177521.0000   177496.0000    35068    0.01%
  11429  9201   177499.0000    12   177521.0000   177496.0000    35072    0.01%
  11430  9202   177499.0000    12   177521.0000   177496.0000    35078    0.01%
  11431  9203   177499.0000    12   177521.0000   177496.0000    35079    0.01%
  11432  9204   177499.0000    13   177521.0000   177496.0000    35081    0.01%
  11433  9205   177499.0000    13   177521.0000   177496.0000    35083    0.01%
  11434  9206   177499.0000    12   177521.0000   177496.0000    35087    0.01%
  11435  9207   177499.0000    12   177521.0000   177496.0000    35088    0.01%
  11436  9208   177499.0000    13   177521.0000   177496.0000    35091    0.01%
Elapsed time = 5.21 sec. (6812.08 ticks, tree = 16.02 MB, solutions = 34)
  14804 12259   177496.0000    14   177521.0000   177496.0000    41919    0.01%
  14805 12260   177496.0000    16   177521.0000   177496.0000    41921    0.01%
  14806 12261   177496.0000    16   177521.0000   177496.0000    41922    0.01%
  14807 12262   177496.0000    16   177521.0000   177496.0000    41923    0.01%
  14808 12263   177496.0000    16   177521.0000   177496.0000    41924    0.01%
  14809 12264   177496.0000    16   177521.0000   177496.0000    41925    0.01%
  14810 12265   177496.0000    16   177521.0000   177496.0000    41926    0.01%
  14811 12266   177496.0000    16   177521.0000   177496.0000    41927    0.01%
  14812 12267   177496.0000    14   177521.0000   177496.0000    41929    0.01%
  14813 12268   177496.0000    14   177521.0000   177496.0000    41930    0.01%
Elapsed time = 5.84 sec. (7767.94 ticks, tree = 21.30 MB, solutions = 34)
  18330 15435   177507.0000    12   177521.0000   177496.0000    48670    0.01%
  18331 15436   177507.0000    12   177521.0000   177496.0000    48671    0.01%
  18332 15437   177507.0000    15   177521.0000   177496.0000    48676    0.01%
  18333 15438   177507.0000    12   177521.0000   177496.0000    48677    0.01%
  18334 15439   177507.0000    12   177521.0000   177496.0000    48680    0.01%
  18335 15440   177507.0000    12   177521.0000   177496.0000    48682    0.01%
  18336 15441   177507.0000    11   177521.0000   177496.0000    48686    0.01%
  18337 15442   177507.0000    11   177521.0000   177496.0000    48689    0.01%
  18338 15443   177507.0000    12   177521.0000   177496.0000    48694    0.01%
  18339 15444   177507.0000    12   177521.0000   177496.0000    48699    0.01%
Elapsed time = 6.47 sec. (8724.45 ticks, tree = 26.88 MB, solutions = 34)
* 19905 12702      integral     0   177512.0000   177496.0000    51858    0.01%

Cover cuts applied:  1
Mixed integer rounding cuts applied:  4
Gomory fractional cuts applied:  2

Root node processing (before b&c):
  Real time             =    0.08 sec. (99.39 ticks)
Sequential b&c:
  Real time             =    6.67 sec. (9065.74 ticks)
                          ------------
Total (root+branch&cut) =    6.75 sec. (9165.14 ticks)

Populate: phase II 
Tried aggregator 2 times.
Aggregator did 10 substitutions.
Reduced MIP has 210 rows, 2001 columns, and 4010 nonzeros.
Reduced MIP has 2000 binaries, 0 generals, 0 SOSs, and 0 indicators.
Presolve time = 0.00 sec. (3.43 ticks)
Probing time = 0.00 sec. (1.75 ticks)
Clique table members: 200.
MIP emphasis: balance optimality and feasibility.
MIP search method: dynamic search.
Parallel mode: none, using 1 thread.
Root relaxation solution time = 0.01 sec. (9.62 ticks)

        Nodes                                         Cuts/
   Node  Left     Objective  IInf  Best Integer    Best Bound    ItCnt     Gap

*     0+    0                       177512.0000        0.0000           100.00%
      0     0   177495.9000    18   177512.0000   177495.9000      264    0.01%
      0     2   177496.0000    17   177512.0000   177496.0000      264    0.01%
Elapsed time = 0.13 sec. (119.54 ticks, tree = 0.01 MB, solutions = 55)
      1     3   177496.0000    17   177512.0000   177496.0000      273    0.01%
      2     4   177496.0000    16   177512.0000   177496.0000      277    0.01%
      3     5   177496.0000    16   177512.0000   177496.0000      281    0.01%
      4     6   177496.0000    16   177512.0000   177496.0000      283    0.01%
      5     7   177496.0000    16   177512.0000   177496.0000      284    0.01%
      6     8   177496.0000    16   177512.0000   177496.0000      289    0.01%
      7     9   177496.0000    15   177512.0000   177496.0000      296    0.01%
      8    10   177496.0000    15   177512.0000   177496.0000      303    0.01%
      9    11   177496.0000    15   177512.0000   177496.0000      308    0.01%
     10    12   177496.0000    15   177512.0000   177496.0000      311    0.01%
Elapsed time = 2.78 sec. (2392.18 ticks, tree = 0.01 MB, solutions = 289)
     39    41   177496.0000    13   177512.0000   177496.0000      457    0.01%
     40    42   177496.0000    14   177512.0000   177496.0000      463    0.01%
     41    43   177496.0000    13   177512.0000   177496.0000      467    0.01%
     42    44   177496.0000    13   177512.0000   177496.0000      473    0.01%
     43    45   177496.0000    14   177512.0000   177496.0000      478    0.01%
     44    46   177496.0000    12   177512.0000   177496.0000      484    0.01%
     45    47   177496.0000    14   177512.0000   177496.0000      492    0.01%
     46    48   177496.0000    13   177512.0000   177496.0000      494    0.01%
     47    49   177496.0000    12   177512.0000   177496.0000      500    0.01%
     48    50   177496.0000    14   177512.0000   177496.0000      506    0.01%
Elapsed time = 4.62 sec. (3698.89 ticks, tree = 0.05 MB, solutions = 714)
     80    82   177496.0000    16   177512.0000   177496.0000      669    0.01%
     81    83   177496.0000    14   177512.0000   177496.0000      671    0.01%
     82    84   177496.0000    13   177512.0000   177496.0000      675    0.01%
     83    85   177496.0000    14   177512.0000   177496.0000      679    0.01%
     84    86   177496.0000    14   177512.0000   177496.0000      682    0.01%
     85    87   177496.0000    14   177512.0000   177496.0000      684    0.01%
     86    88   177496.0000    14   177512.0000   177496.0000      690    0.01%
     87    89   177496.0000    14   177512.0000   177496.0000      696    0.01%
     88    90   177496.0000    14   177512.0000   177496.0000      698    0.01%
     89    91   177496.0000    13   177512.0000   177496.0000      704    0.01%
Elapsed time = 6.53 sec. (5023.12 ticks, tree = 0.09 MB, solutions = 1088)
    119   121   177496.0000    14   177512.0000   177496.0000      884    0.01%
    120   122   177496.0000    14   177512.0000   177496.0000      887    0.01%
    121   123   177496.0000    13   177512.0000   177496.0000      893    0.01%
    122   124   177496.0000    13   177512.0000   177496.0000      900    0.01%
    123   125   177496.0000    13   177512.0000   177496.0000      905    0.01%
    124   126   177496.0000    12   177512.0000   177496.0000      910    0.01%
    125   127   177496.0000    13   177512.0000   177496.0000      916    0.01%
    126   128   177496.0000    13   177512.0000   177496.0000      920    0.01%
    127   129   177496.0000    13   177512.0000   177496.0000      931    0.01%
    128   130   177496.0000    13   177512.0000   177496.0000      934    0.01%
Elapsed time = 8.43 sec. (6330.99 ticks, tree = 0.14 MB, solutions = 1499)
    159   161   177496.0000    14   177512.0000   177496.0000     1057    0.01%
    160   162   177496.0000    14   177512.0000   177496.0000     1059    0.01%
    161   163   177496.0000    14   177512.0000   177496.0000     1062    0.01%
    162   164   177496.0000    14   177512.0000   177496.0000     1064    0.01%
    163   165   177496.0000    14   177512.0000   177496.0000     1066    0.01%
    164   166   177496.0000    14   177512.0000   177496.0000     1069    0.01%
    165   167   177496.0000    14   177512.0000   177496.0000     1071    0.01%
    166   168   177496.0000    14   177512.0000   177496.0000     1074    0.01%
    167   169   177496.0000    14   177512.0000   177496.0000     1075    0.01%
    168   170   177496.0000    14   177512.0000   177496.0000     1077    0.01%
Elapsed time = 10.18 sec. (7530.13 ticks, tree = 0.19 MB, solutions = 1878)

Root node processing (before b&c):
  Real time             =    0.15 sec. (146.85 ticks)
Sequential b&c:
  Real time             =   10.72 sec. (7858.30 ticks)
                          ------------
Total (root+branch&cut) =   10.88 sec. (8005.16 ticks)
